NAME : amz0342.119510_113510.tour
COMMENT : Cost = 119510_113510
COMMENT : Found by LKH-AMZ [Keld Helsgaun] Sun May 11 14:30:00 2025
COMMENT : TW viol.: 0 #: 0
TYPE : TOUR
DIMENSION : 143
TOUR_SECTION
99
73
116
130
37
18
1
83
96
56
62
14
72
88
122
21
76
10
12
109
82
142
27
137
4
129
65
48
108
24
135
70
42
30
63
93
113
78
104
67
71
9
89
133
95
53
28
32
26
45
136
81
127
79
47
13
57
8
60
132
119
114
115
46
139
55
85
77
40
16
124
19
80
112
91
101
41
2
105
102
33
97
106
31
22
86
69
143
66
84
17
134
123
92
87
49
98
107
38
100
44
111
6
7
23
103
140
51
94
36
34
138
39
120
54
59
5
11
52
68
118
58
61
3
90
74
141
117
121
20
25
64
15
43
110
128
75
50
131
125
126
35
29
-1
EOF
